nMembers=10;
MM=[
	[0 4 2 8 10 7 8 10 9 8]
	[2 0 4 6 7 3 3 4 4 3]
	[4 9 0 5 10 3 3 6 8 10]
	[4 9 9 0 9 9 7 3 2 7]
	[7 7 5 7 0 3 3 9 2 3]
	[2 6 10 2 9 0 5 9 8 5]
	[3 7 8 1 5 4 0 10 6 8]
	[7 2 3 9 10 7 2 0 7 5]
	[8 1 6 9 1 5 3 8 0 4]
	[7 4 1 6 8 9 8 1 3 0]
];
